c A SAT instance generated from a 3-CNF formula that had 70 clauses and 10 variables
p cnf 10 70
-10 3 5 0
4 -1 3 0
6 -5 10 0
8 -6 1 0
-3 -4 7 0
7 -2 -5 0
3 9 -5 0
-3 -4 -9 0
-10 3 4 0
2 -3 1 0
3 -9 -6 0
6 -9 -3 0
3 5 -1 0
-7 -3 5 0
5 10 8 0
5 4 -10 0
10 -8 -9 0
-3 -2 -5 0
3 -7 1 0
1 2 -10 0
10 -8 -2 0
8 -6 -5 0
9 1 -8 0
-6 -3 -5 0
-8 4 6 0
-7 -3 -9 0
-5 2 -8 0
-2 4 -1 0
10 8 -1 0
7 1 -2 0
6 -2 4 0
-8 -6 1 0
-10 -9 6 0
6 5 1 0
8 4 -7 0
2 -3 4 0
-3 9 7 0
-10 9 -7 0
1 -2 -6 0
-2 -10 9 0
1 -7 4 0
6 5 -3 0
4 -7 -8 0
3 4 -6 0
2 -6 3 0
9 -10 -6 0
-8 -4 -7 0
-10 -8 -1 0
6 -10 -2 0
2 -10 3 0
4 1 -2 0
2 6 7 0
9 -1 -6 0
8 -3 -6 0
-6 -7 5 0
-5 -2 -4 0
-7 9 -10 0
-9 -5 10 0
-1 3 9 0
-2 -9 1 0
-1 -10 7 0
2 1 -8 0
10 4 6 0
8 -4 2 0
-9 1 2 0
-8 -9 3 0
10 -3 5 0
3 -6 -1 0
10 1 3 0
9 -8 -7 0
